StudentsNr = 10;
InstructorsNr = 66;
DaysNr = 2;
SlotsPerDay = 20;
AvailabilitySlotsLenght = 20;
RoomNr = 1;
ProgrammNr = 2;
DegreeNr = 2;
RolesNr = 2;
CoursesNr = 5;
InstructorsProgramm = [{2}, {1}, {2}, {1}, {2}, {1, 2}, {1}, {1, 2}, {1}, {1}, {2}, {1, 2}, {2}, {1}, {1}, {1}, {1}, {1}, {1}, {2}, {1, 2}, {2}, {1}, {1, 2}, {2}, {2}, {1}, {1}, {1, 2}, {1}, {2}, {2}, {2}, {1}, {1, 2}, {2}, {1}, {2}, {1}, {1}, {1}, {1}, {2}, {1}, {2}, {1, 2}, {2}, {1, 2}, {2}, {2}, {2}, {1}, {2}, {2}, {1}, {2}, {2}, {1}, {1, 2}, {1}, {1}, {1, 2}, {1, 2}, {1, 2}, {1}, {1}];
InstructorRolesPerProgramm = [|{7, 8, 9, 10, 12, 19, 27, 28, 30, 34, 44, 46, 64, 65}, {2, 16, 17, 18, 24, 27, 30, 39, 40, 46, 52, 55, 59, 60, 63, 65}|{8, 11, 12, 36, 38, 45, 46, 47, 49, 50, 51, 64}, {5, 22, 24, 25, 26, 43, 46, 50, 51, 56, 57, 59, 63}|];
InstructorsAvailability = [|0, 0, |0, 1, |1, 1, |0, 0, |0, 1, |1, 0, |1, 0, |0, 1, |1, 1, |0, 0, |1, 1, |0, 0, |0, 0, |1, 1, |0, 1, |1, 1, |1, 1, |1, 1, |1, 1, |1, 1, |0, 0, |0, 1, |0, 1, |0, 1, |0, 1, |0, 1, |1, 1, |1, 1, |1, 1, |1, 1, |1, 1, |1, 1, |0, 0, |1, 1, |1, 1, |1, 1, |0, 0, |1, 1, |0, 1, |1, 0, |0, 1, |1, 1, |1, 1, |1, 1, |1, 1, |1, 1, |1, 1, |0, 1, |1, 1, |0, 0, |1, 1, |0, 0, |0, 0, |1, 1, |1, 1, |1, 0, |0, 1, |1, 1, |1, 1, |0, 1, |0, 1, |1, 1, |0, 1, |0, 0, |0, 0, |0, 0|];
StudentsProgramm = [1, 1, 2, 2, 1, 2, 2, 2, 1, 2];
StudentsDegree = [2, 2, 1, 1, 2, 1, 1, 1, 2, 2];
StudentsSupervisorId = [60, 65, 29, 31, 62, 6, 35, 53, 58, 51];
StudentsCourseIds = [{1, 2, 3, 4, 5}, {1, 2, 3, 4, 5}, {}, {}, {1, 2, 3, 4, 5}, {}, {}, {}, {1, 2, 3, 4, 5}, {1, 2, 3, 4, 5}];
StudentsAvailability = [|1, 1, |0, 1, |0, 0, |1, 1, |0, 1, |1, 1, |1, 1, |1, 1, |0, 0, |0, 0|];
TheoryticalMinCard = [0, 0, 1, 1, 0, 1, 1, 1, 1, 0];
CoursesInstructorIds = [{6, 10, 13, 15, 16, 18, 20, 26, 27, 30, 35, 39, 41, 44, 46, 57, 59, 64}, {2, 3, 9, 12, 17, 21, 22, 30, 34, 38, 46, 47, 49, 60}, {1, 2, 3, 6, 8, 9, 10, 11, 12, 15, 17, 18, 19, 20, 28, 30, 35, 36, 38, 39, 43, 46, 47, 49, 50, 51, 52, 53, 54, 55, 57, 59, 60, 63, 66}, {1, 7, 9, 10, 11, 12, 13, 15, 16, 18, 21, 23, 25, 27, 30, 31, 32, 39, 41, 43, 45, 49, 52, 53, 54, 59, 63, 64, 66}, {2, 3, 5, 7, 8, 9, 10, 12, 15, 16, 17, 20, 23, 27, 28, 29, 31, 32, 34, 37, 41, 42, 43, 44, 46, 47, 49, 50, 51, 54, 55, 57, 59, 60, 61, 62, 64, 65, 66}];
RolesDemands = [3, 6];
RolesContinuity = [2];
ExamLen = [2, 2, 1, 1, 2, 1, 1, 1, 2, 2];
LunchTsMinLen = 0;
LunchStarts = [5..13, 29..33];
SupervisorAvailable = 0;
OptimalLunchLenght = [1, 0];
OptimalStartTs = [1, 0];
OptimalFinishTs = [0, 20];
MinimizeRooms = 300;
RolesSoftContinuity = [|1, 2|3, 3|];
SameDegreeInRoom = 20;
Mergeability = 1;
